24 23
37 40
50 57
62 73
73 90
83 106
94 121
131 165
172 208
186 222
233 260
248 273
263 285
277 298
291 310
317 332
331 344
1658 1652
1644 1626
1631 1599
1618 1571
1604 1544
1591 1518
1579 1493
1568 1468
1556 1444
1543 1421
1529 1399
1515 1378
1502 1356
1488 1335
1473 1314
1458 1294
1442 1274
1425 1253
1409 1233
1393 1212
1376 1190
1358 1169
1340 1149
1321 1130
1302 1110
1284 1089
1267 1067
1250 1046
1233 1025
1215 1005
1196 985
1176 966
1156 948
1135 931
1114 913
1093 894
1073 876
1053 858
1032 841
1012 824
992 808
972 792
952 777
932 762
912 748
893 734
873 720
852 706
832 693
813 680
795 668
776 657
757 645
739 632
720 619
702 607
683 594
665 581
646 568
628 555
609 542
590 529
571 517
552 504
533 490
514 477
496 464
477 452
458 440
440 428
423 415
407 403
390 390
374 378
359 366
345 355
304 321
217 247
201 235
158 194
145 180
118 150
106 136
